  22
 posiciones de los atomos
He       1.00052585    -1.99828476     0.66983026
He       1.10238680    -2.31295789    -1.96555273
He       0.95357036     1.47924823     3.59819655
He      -0.01381252    -0.00216626    -1.51053677
He       2.55205051    -0.13944517     1.91689751
He      -1.38762245    -2.14195651     1.95871262
He       1.20201010     1.86345861     0.71295984
He      -2.23202427     0.17746510     0.68470352
He      -1.16141777    -1.88151712    -0.70635427
He       1.44834706     2.20399547    -1.93404967
He       0.77110711    -1.56419688     3.54111707
He      -0.04839040    -0.02546909     1.55985082
He      -1.75300219     0.11364914     3.57257938
He       1.77121538    -0.10440246    -3.52930612
He      -0.76795761     1.57818213    -3.58668558
He      -0.93322096    -1.51296230    -3.55669666
He       2.20241963    -0.11930631    -0.71713048
He      -1.13916507     2.24340160     1.88769077
He      -1.00291025     1.98534482    -0.65823660
He      -2.59039948     0.14704014    -1.93248556
H        0.07145274     0.03406809    -0.53986814
H        0.03295924     0.00914011     0.51800928
He       0.99667222    -1.97528160     0.72110728
He       1.18464672    -2.29205943    -1.90692518
He       0.97059432     1.45186263     3.54970802
He      -0.01064829     0.00014818    -1.55904738
He       2.55096741    -0.14072595     1.91754616
He      -1.43508817    -2.18522698     1.91385411
He       1.20121970     1.85639358     0.69709296
He      -2.28181548     0.09381244     0.65727433
He      -1.21749057    -1.85416782    -0.70636017
He       1.41384002     2.15656483    -1.96855684
He       0.82025446    -1.56710975     3.59715020
He       0.02563302    -0.01784396     1.60844609
He      -1.74536092     0.11877856     3.57798437
He       1.78969591    -0.05263887    -3.57386731
He      -0.76683259     1.56343691    -3.56508865
He      -0.96582062    -1.47697245    -3.57882067
He       2.22498402    -0.09083174    -0.69976287
He      -1.16726499     2.25474730     1.90140162
He      -1.00715411     1.96793157    -0.66288006
He      -2.57668759     0.15832848    -1.92680743
H       -0.00140493     0.09378663    -0.51537704
H       -0.01584934     0.02875108     0.54139613
He       1.04707624    -2.00802459     0.66972950
He       1.19320870    -2.28663556    -1.90212439
He       0.95389301     1.47451895     3.59398801
He      -0.00196852     0.01457907    -1.59933676
He       2.57685836    -0.09217451     1.92484381
He      -1.36500081    -2.11708434     1.95584371
He       1.21195079     1.85683966     0.67084096
He      -2.26469767     0.13309430     0.64774123
He      -1.27062007    -1.87592736    -0.66682592
He       1.41303361     2.16471067    -1.97467922
He       0.82977672    -1.56060762     3.54981462
He       0.02301543    -0.02487132     1.54878482
He      -1.76657135     0.07912829     3.60622065
He       1.74814758    -0.08917693    -3.58142392
He      -0.78879026     1.55077525    -3.59579802
He      -0.98179445    -1.51072003    -3.54093313
He       2.22846952    -0.13125564    -0.67861606
He      -1.16745698     2.33364538     1.93728003
He      -1.03646515     1.95037027    -0.68500403
He      -2.57004221     0.11987725    -1.88509439
H       -0.01062196    -0.00113658    -0.51842024
H       -0.03712556     0.07635251     0.53727895
He       0.99325581    -1.99257306     0.71191982
He       1.15103220    -2.28502053    -1.92141165
He       0.96639056     1.49748726     3.56736089
He      -0.01198190     0.01529186    -1.59069633
He       2.56923062    -0.11797162     1.90560469
He      -1.39058514    -2.14930308     1.94508919
He       1.22414656     1.84304679     0.68283146
He      -2.20842975     0.09178664     0.67414993
He      -1.18249854    -1.87423922    -0.71256862
He       1.40957796     2.12847859    -1.88463857
He       0.75996435    -1.60086384     3.57089878
He       0.00263112    -0.00897127     1.57081976
He      -1.72148860     0.14510233     3.60420580
He       1.80945934    -0.07837434    -3.57163873
He      -0.80810521     1.54013646    -3.57406517
He      -0.92255412    -1.45267636    -3.60201272
He       2.24301790    -0.13539191    -0.67272290
He      -1.17400566     2.29785379     1.89689158
He      -1.06782463     2.02462540    -0.67003768
He      -2.62804712     0.10258974    -1.90081030
H       -0.02025822     0.04864456    -0.58642876
H       -0.03210940    -0.01295500     0.47058252
He       0.97514335    -1.97359736     0.70305858
He       1.16560966    -2.30702805    -1.94450761
He       0.98729032     1.43920977     3.55543311
He      -0.01102950    -0.00715922    -1.59464077
He       2.54007391    -0.20473588     1.92739214
He      -1.40994527    -2.14171966     1.93503603
He       1.21525822     1.88960009     0.66949625
He      -2.26881644     0.12606782     0.71033794
He      -1.20585751    -1.90951643    -0.67310294
He       1.40766474     2.12256874    -1.98299955
He       0.82999091    -1.52834956     3.60377121
He       0.03782429    -0.02037997     1.54181228
He      -1.75724821     0.09591136     3.59156095
He       1.77969915    -0.07966766    -3.58395310
He      -0.85831786     1.58587992    -3.56662757
He      -0.95941820    -1.49676064    -3.58631658
He       2.18955848    -0.08495581    -0.66930690
He      -1.13839282     2.33780390     1.93872416
He      -1.01262487     2.01543145    -0.66890276
He      -2.52832788     0.13467196    -1.93011009
H        0.06624943     0.03403950    -0.48118752
H        0.02059000    -0.00733013     0.57588937
He       1.01500564    -2.01235418     0.66884809
He       1.14085893    -2.34844730    -1.92931154
He       0.89936790     1.47216093     3.55384970
He      -0.00124337     0.04131983    -1.55981569
He       2.57160017    -0.16939709     1.91169011
He      -1.39321282    -2.14875981     1.90141823
He       1.21138413     1.87331898     0.69754017
He      -2.19529404     0.09553097     0.66269090
He      -1.22110524    -1.84581444    -0.66961460
He       1.41141281     2.18658283    -1.92299616
He       0.81705089    -1.56394457     3.60068167
He       0.00961433    -0.00242180     1.58274701
He      -1.74191429     0.13540065     3.58772974
He       1.78319334    -0.04126643    -3.59540915
He      -0.78449713     1.58477877    -3.58923048
He      -0.96737684    -1.46661285    -3.54659405
He       2.22872760    -0.16380545    -0.66772885
He      -1.17403008     2.30477561     1.93353282
He      -1.03059044     1.95994066    -0.68653844
He      -2.56125563     0.12427600    -1.93735639
H        0.00966916     0.04498453    -0.51445676
H       -0.07994869    -0.10559506     0.52981438
He       1.04403917    -2.00106038     0.64037809
He       1.16325658    -2.29069502    -1.96553363
He       0.94408179     1.50105168     3.56706656
He       0.02356007    -0.01279120    -1.60003172
He       2.57362271    -0.11403419     1.93736871
He      -1.38975437    -2.17451603     1.94203476
He       1.18686148     1.87720251     0.71011139
He      -2.23389589     0.12463780     0.72963024
He      -1.20176619    -1.81496474    -0.65929875
He       1.43726629     2.13697092    -1.92885920
He       0.79469806    -1.58099098     3.55791902
He      -0.04574603     0.01564200     1.58349298
He      -1.73860561     0.12652721     3.60941914
He       1.75960836    -0.15978153    -3.58809305
He      -0.77663752     1.55686975    -3.60630183
He      -0.98012944    -1.48447967    -3.61667267
He       2.19794009    -0.10791672    -0.64626730
He      -1.14167884     2.28280689     1.91131499
He      -1.03315693     1.98830346    -0.63818163
He      -2.55459088     0.12823123    -1.95050020
H       -0.07798856     0.05968564    -0.50445067
H       -0.03707808    -0.04782262     0.54815377
He       1.01765307    -2.00880047     0.69548788
He       1.20992887    -2.29487046    -1.90252958
He       0.96929736     1.44313032     3.60818375
He       0.02242817    -0.02155758    -1.54997070
He       2.60335156    -0.17989530     1.89879496
He      -1.43621779    -2.10650150     1.90079715
He       1.15744561     1.87580006     0.69695880
He      -2.18502617     0.07270040     0.66161646
He      -1.21137726    -1.86292896    -0.66681179
He       1.38602445     2.18446470    -1.91103107
He       0.77959547    -1.50318142     3.59837695
He       0.01370093     0.01731600     1.54922954
He      -1.74439731     0.07061646     3.56850443
He       1.75110216    -0.06585794    -3.57578676
He      -0.81408218     1.49734952    -3.58911446
He      -0.97446955    -1.48302366    -3.56490847
He       2.26549924    -0.08432171    -0.70274440
He      -1.17562411     2.31825738     1.90958467
He      -1.05683317     2.02101308    -0.67769833
He      -2.57697791     0.12673471    -1.95983888
H        0.03117979    -0.04680415    -0.50258747
H       -0.03523646    -0.01850208     0.55381950
He       0.97858970    -1.97311845     0.69959139
He       1.17905058    -2.29196142    -1.89359306
He       0.96341112     1.48666848     3.58255465
He      -0.00729479    -0.02313225    -1.57070774
He       2.59194837    -0.13068919     1.91141509
He      -1.40771924    -2.15797162     1.89121836
He       1.20292195     1.83308174     0.67217344
He      -2.22472115     0.13687964     0.68442406
He      -1.20842475    -1.86482098    -0.69419528
He       1.40676161     2.16295378    -1.90218763
He       0.79782620    -1.58143035     3.59377575
He       0.00498580    -0.02133416     1.55031732
He      -1.75950638     0.11507789     3.57463979
He       1.74387990    -0.06477016    -3.63496814
He      -0.79464984     1.55768566    -3.55899569
He      -0.95385150    -1.47446070    -3.57717954
He       2.21484626    -0.09794398    -0.69323786
He      -1.19875277     2.27394395     1.91743774
He      -1.01171961     1.98308169    -0.64744967
He      -2.52704618     0.12035174    -1.92866574
H        0.06554003     0.08032038    -0.47738490
H       -0.02795052    -0.03302480     0.57124286
He       1.01071663    -2.01765099     0.70134209
He       1.10482164    -2.30169011    -1.94446135
He       0.93448139     1.47106398     3.61221379
He       0.03907438    -0.00798919    -1.56230505
He       2.55520422    -0.17498372     1.92571213
He      -1.39202441    -2.18048505     1.92805972
He       1.25802986     1.89076245     0.67191480
He      -2.28080075     0.12826819     0.64561182
He      -1.19272172    -1.92338668    -0.67986317
He       1.42166451     2.18112258    -1.90857778
He       0.77967016    -1.54270369     3.56979694
He      -0.01309464    -0.01961150     1.57260826
He      -1.75600502     0.09734006     3.57333687
He       1.73991353    -0.08905023    -3.61406380
He      -0.76103873     1.60633538    -3.60588220
He      -0.93436110    -1.45950301    -3.59559901
He       2.22799360    -0.10471936    -0.69127998
He      -1.17359813     2.36104392     1.89687787
He      -1.00501809     1.96061985    -0.61917373
He      -2.57716308     0.12081187    -1.87155069
H        0.07021615    -0.02416403    -0.53611505
H       -0.01359907     0.04165960     0.51737916
 
 
   distancia enlace final      1.058871
   distancia enlace final      1.058871
   distancia enlace final      1.058871
   distancia enlace final      1.058871
   distancia enlace final      1.058871
   distancia enlace final      1.058871
   distancia enlace final      1.058871
   distancia enlace final      1.058871
   distancia enlace final      1.058871
   distancia enlace final      1.058871
