  22
 posiciones de los atomos
He      -3.27624749    -3.73290823    -1.53567664
He       3.77553425    -1.45348283     0.92651142
He       5.23961446     4.14868624     0.65816149
He      -5.03293097    -3.23186994    -3.15224020
He       5.07155821    -2.36094316     4.22757010
He      -4.33211687    -0.78778027     5.44015233
He       2.30998409    -0.13422764    -2.88996404
He      -1.73906527     2.96429190     2.96237899
He      -3.43449048     0.69997085     0.75627076
He      -0.58223400     4.48624244    -0.62534704
He       3.96491617    -0.05202842     2.35389600
He      -0.71581237    -0.16494750     2.30568075
He       0.61185264     1.31833011     4.14952089
He       2.67145535    -2.39489070    -5.90933799
He       2.55775005     6.21057005    -5.55048234
He      -6.05878883    -5.58958674    -1.75052822
He       3.96146464    -2.78544307    -3.32409149
He       1.60512425     1.64784548    -0.42576958
He      -1.23955934     1.70386061    -0.95466804
He      -5.78576752    -1.03229733     1.74000252
H        1.24432902     1.26165742     0.88914753
H        0.45452566     0.88538009     1.48566561
 
 
   distancia enlace final      1.058871
