  22
 posiciones de los atomos
He      -2.28928336     0.10404091     1.04477434
He      -0.35288239    -1.67869984    -4.51908811
He      -2.19604426     1.58024625     3.27814104
He      -1.59680099    -0.63532249    -1.53536063
He       2.39416074     1.41561500    -1.37895060
He      -2.09513552     1.30733088    -0.63240776
He       1.90978909    -1.70249810     3.60578985
He      -3.20107606    -0.91416083    -3.17377645
He       4.21518130     1.00696250     1.02070374
He       0.45472605    -2.86173228    -1.15785561
He       0.01602148     0.25665130     3.37522620
He      -0.88109304     4.60099908     2.12447986
He       1.13891222     1.95105102    -4.01419687
He      -1.44902458    -3.14505084    -0.38595937
He       0.91379134    -1.08173097     1.54001843
He       3.13861592    -1.25962092    -0.26862040
He       1.19823142    -0.82090378    -2.28442734
He      -0.05045757     1.57970492     0.97506236
He      -0.23618639     3.11483419    -0.76464762
He      -0.77206297    -2.90062102     3.36910551
H       -0.86505783     0.21112231    -0.03839192
H       -0.16508538     0.11813680    -0.82744203
 
 
   distancia enlace final      1.058871
