  22
 posiciones de los atomos
He    -242.75420418  -245.75359795  -243.08213138
He    -243.07918413  -246.53695609  -246.16719938
He    -241.84990110  -241.33394880  -239.22957647
He    -243.76623718  -243.76624995  -245.33800238
He    -240.23951630  -242.94205566  -240.88565338
He    -245.64664213  -246.40182209  -242.32460138
He    3082.83266902  3083.48796534  3082.30199773
He    -246.47299413  -244.12869109  -243.56178338
He    -245.46095513  -246.11604109  -244.93002338
He    -242.36547818  -241.61034195  -245.68755738
He    -243.44876613  -245.81127009  -240.66851938
He    -243.76624118  -243.76624895  -242.19450238
He    -246.00010013  -244.15359009  -240.66852938
He    -242.49167513  -244.33823909  -247.82326738
He    -245.04301013  -242.68057309  -247.82327938
He    -245.20292813  -245.71891709  -247.82328738
He    -241.05948024  -243.40380780  -243.97072638
He    -244.45329824  -240.99554480  -241.36530738
He    -244.77827318  -241.77889795  -244.45037538
He    -246.81332513  -244.11077309  -246.16720938
H     3081.34845821  3081.98801278  3081.89051093
H     3081.89694759  3081.25763267  3081.35486916
He    -242.97617678  -245.97556029  -243.30409044
He    -243.30115672  -246.75891844  -246.38915844
He    -242.07187369  -241.55591115  -239.45153554
He    -243.98820978  -243.98821229  -245.55996144
He    -240.46148889  -243.16401801  -241.10761244
He    -245.86861472  -246.62378444  -242.54656044
He    3085.48868129  3086.14385499  3084.95784809
He    -246.69496672  -244.35065344  -243.78374244
He    -245.68292772  -246.33800344  -245.15198244
He    -242.58745078  -241.83230429  -245.90951644
He    -243.67073872  -246.03323244  -240.89047844
He    -243.98821378  -243.98821129  -242.41646144
He    -246.22207272  -244.37555244  -240.89048844
He    -242.71364772  -244.56020144  -248.04522644
He    -245.26498272  -242.90253544  -248.04523844
He    -245.42490072  -245.94087944  -248.04524644
He    -241.28145284  -243.62577015  -244.19268544
He    -244.67527084  -241.21750715  -241.58726644
He    -245.00024578  -242.00086029  -244.67233444
He    -247.03529772  -244.33273544  -246.38916844
H     3084.59886341  3085.23261210  3084.79719382
H     3084.84794419  3084.21414886  3084.64921004
He    -243.22153221  -246.22091209  -243.54944584
He    -243.54651215  -247.00427024  -246.63451384
He    -242.31722912  -241.80126295  -239.69689094
He    -244.23356521  -244.23356409  -245.80531684
He    -240.70684432  -243.40936980  -241.35296784
He    -246.11397015  -246.86913624  -242.79191584
He    3088.60081986  3089.25594753  3088.06998629
He    -246.94032215  -244.59600524  -244.02909784
He    -245.92828315  -246.58335524  -245.39733784
He    -242.83280621  -242.07765609  -246.15487184
He    -243.91609415  -246.27858424  -241.13583384
He    -244.23356921  -244.23356309  -242.66181684
He    -246.46742815  -244.62090424  -241.13584384
He    -242.95900315  -244.80555324  -248.29058184
He    -245.51033815  -243.14788724  -248.29059384
He    -245.67025615  -246.18623124  -248.29060184
He    -241.52680826  -243.87112195  -244.43804084
He    -244.92062626  -241.46285895  -241.83262184
He    -245.24560121  -242.24621209  -244.91768984
He    -247.28065315  -244.57808724  -246.63452384
H     3087.88090289  3088.30919397  3087.67757207
H     3087.72023407  3087.29180530  3087.92316041
He    -243.46688400  -246.46626749  -243.79481260
He    -243.79186395  -247.24962563  -246.87988060
He    -242.56258092  -242.04661835  -239.94225769
He    -244.47891700  -244.47891949  -246.05068360
He    -240.95219612  -243.65472520  -241.59833460
He    -246.35932195  -247.11449163  -243.03728260
He    3091.71291239  3092.36808572  3091.18226855
He    -247.18567395  -244.84136063  -244.27446460
He    -246.17363495  -246.82871063  -245.64270460
He    -243.07815800  -242.32301149  -246.40023860
He    -244.16144595  -246.52393963  -241.38120060
He    -244.47892100  -244.47891849  -242.90718360
He    -246.71277995  -244.86625963  -241.38121060
He    -243.20435495  -245.05090863  -248.53594860
He    -245.75568995  -243.39324263  -248.53596060
He    -245.91560795  -246.43158663  -248.53596860
He    -241.77216006  -244.11647735  -244.68340760
He    -245.16597806  -241.70821435  -242.07798860
He    -245.49095300  -242.49156749  -245.16305660
He    -247.52600495  -244.82344263  -246.87989060
H     3091.15732681  3091.24140143  3090.61347814
H     3090.59804845  3090.51392645  3091.14186783
He    -243.71223940  -246.71163424  -244.04016802
He    -244.03721934  -247.49499239  -247.12523602
He    -242.80793631  -242.29198510  -240.18761312
He    -244.72427240  -244.72428624  -246.29603902
He    -241.19755152  -243.90009196  -241.84369002
He    -246.60467734  -247.35985839  -243.28263802
He    3094.82505059  3095.48036798  3094.29440712
He    -247.43102934  -245.08672739  -244.51982002
He    -246.41899034  -247.07407739  -245.88806002
He    -243.32351340  -242.56837824  -246.64559402
He    -244.40680134  -246.76930639  -241.62655602
He    -244.72427640  -244.72428524  -243.15253902
He    -246.95813534  -245.11162639  -241.62656602
He    -243.44971034  -245.29627539  -248.78130402
He    -246.00104534  -243.63860939  -248.78131602
He    -246.16096334  -246.67695339  -248.78132402
He    -242.01751546  -244.36184410  -244.92876302
He    -245.41133346  -241.95358110  -242.32334402
He    -245.73630840  -242.73693424  -245.40841202
He    -247.77136034  -245.06880939  -247.12524602
H     3094.36899953  3094.07239797  3093.64662580
H     3093.54070434  3093.83754340  3094.26304952
He    -243.95760616  -246.95698967  -244.28551982
He    -244.28258610  -247.74034782  -247.37058782
He    -243.05330307  -242.53734053  -240.43296492
He    -244.96963916  -244.96964167  -246.54139082
He    -241.44291827  -244.14544738  -242.08904182
He    -246.85004410  -247.60521382  -243.52798982
He    3097.93733284  3098.59250655  3097.40649965
He    -247.67639610  -245.33208282  -244.76517182
He    -246.66435710  -247.31943282  -246.13341182
He    -243.56888016  -242.81373367  -246.89094582
He    -244.65216810  -247.01466182  -241.87190782
He    -244.96964316  -244.96964067  -243.39789082
He    -247.20350210  -245.35698182  -241.87191782
He    -243.69507710  -245.54163082  -249.02665582
He    -246.24641210  -243.88396482  -249.02666782
He    -246.40633010  -246.92230882  -249.02667582
He    -242.26288221  -244.60719953  -245.17411482
He    -245.65670021  -242.19893653  -242.56869582
He    -245.98167516  -242.98228967  -245.65376382
He    -248.01672710  -245.31416482  -247.37059782
H     3097.47614128  3096.87492143  3096.79016108
H     3096.58817608  3097.18934929  3097.27375255
He    -244.20296158  -247.20234147  -244.53087522
He    -244.52794153  -247.98569961  -247.61594322
He    -243.29865850  -242.78269233  -240.67832031
He    -245.21499458  -245.21499347  -246.78674622
He    -241.68827370  -244.39079918  -242.33439722
He    -247.09539953  -247.85056561  -243.77334522
He    3101.04947141  3101.70459908  3100.51863785
He    -247.92175153  -245.57743461  -245.01052722
He    -246.90971253  -247.56478461  -246.37876722
He    -243.81423558  -243.05908547  -247.13630122
He    -244.89752353  -247.26001361  -242.11726322
He    -245.21499858  -245.21499247  -243.64324622
He    -247.44885753  -245.60233361  -242.11727322
He    -243.94043253  -245.78698261  -249.27201122
He    -246.49176753  -244.12931661  -249.27202322
He    -246.65168553  -247.16766061  -249.27203122
He    -242.50823764  -244.85255133  -245.41947022
He    -245.90205564  -242.44428833  -242.81405122
He    -246.22703058  -243.22764147  -245.89911922
He    -248.26208253  -245.55951661  -247.61595322
H     3100.46961282  3099.73067139  3100.02445547
H     3099.74903390  3100.48783764  3100.19378676
He    -244.44831338  -247.44769687  -244.77624197
He    -244.77329332  -248.23105501  -247.86130997
He    -243.54401029  -243.02804772  -240.92368707
He    -245.46034638  -245.46034887  -247.03211297
He    -241.93362550  -244.63615458  -242.57976397
He    -247.34075132  -248.09592101  -244.01871197
He    3104.16156395  3104.81673728  3103.63092010
He    -248.16710332  -245.82279001  -245.25589397
He    -247.15506432  -247.81014001  -246.62413397
He    -244.05958738  -243.30444087  -247.38166797
He    -245.14287532  -247.50536901  -242.36262997
He    -245.46035038  -245.46034787  -243.88861297
He    -247.69420932  -245.84768901  -242.36263997
He    -244.18578432  -246.03233801  -249.51737797
He    -246.73711932  -244.37467201  -249.51738997
He    -246.89703732  -247.41301601  -249.51739797
He    -242.75358944  -245.09790672  -245.66483697
He    -246.14740744  -242.68964372  -243.05941797
He    -246.47238238  -243.47299687  -246.14448597
He    -248.50743432  -245.80487201  -247.86131997
H     3103.37432375  3102.70536930  3103.30302093
H     3102.99856128  3103.66746835  3103.06983480
He    -244.69366878  -247.69306362  -245.02159740
He    -245.01864872  -248.47642177  -248.10666540
He    -243.78936569  -243.27341448  -241.16904250
He    -245.70570178  -245.70571562  -247.27746840
He    -242.17898089  -244.88152133  -242.82511940
He    -247.58610672  -248.34128777  -244.26406740
He    3107.27370215  3107.92901953  3106.74305867
He    -248.41245872  -246.06815677  -245.50124940
He    -247.40041972  -248.05550677  -246.86948940
He    -244.30494278  -243.54980762  -247.62702340
He    -245.38823072  -247.75073577  -242.60798540
He    -245.70570578  -245.70571462  -244.13396840
He    -247.93956472  -246.09305577  -242.60799540
He    -244.43113972  -246.27770477  -249.76273340
He    -246.98247472  -244.62003877  -249.76274540
He    -247.14239272  -247.65838277  -249.76275340
He    -242.99894484  -245.34327348  -245.91019240
He    -246.39276284  -242.93501048  -243.30477340
He    -246.71773778  -243.71836362  -246.38984140
He    -248.75278972  -246.05023877  -248.10667540
H     3106.24157862  3105.82954971  3106.56576473
H     3106.28563502  3106.69790142  3105.96142034
He    -244.93903553  -247.93841905  -245.26694920
He    -245.26401548  -248.72177719  -248.35201720
He    -244.03473245  -243.51876991  -241.41439429
He    -245.95106853  -245.95107105  -247.52282020
He    -242.42434765  -245.12687676  -243.07047120
He    -247.83147348  -248.58664319  -244.50941920
He    3110.38598440  3111.04115811  3109.85515121
He    -248.65782548  -246.31351219  -245.74660120
He    -247.64578648  -248.30086219  -247.11484120
He    -244.55030953  -243.79516305  -247.87237520
He    -245.63359748  -247.99609119  -242.85333720
He    -245.95107253  -245.95107005  -244.37932020
He    -248.18493148  -246.33841119  -242.85334720
He    -244.67650648  -246.52306019  -250.00808520
He    -247.22784148  -244.86539419  -250.00809720
He    -247.38775948  -247.90373819  -250.00810520
He    -243.24431159  -245.58862891  -246.15554420
He    -246.63812959  -243.18036591  -243.55012520
He    -246.96310453  -243.96371905  -246.63519320
He    -248.99815648  -246.29559419  -248.35202720
H     3109.13370549  3109.08903172  3109.75776570
H     3109.54812164  3109.59274876  3108.92365768
 
 
   distancia enlace final      1.058871
   distancia enlace final      1.058871
   distancia enlace final      1.058871
   distancia enlace final      1.058871
   distancia enlace final      1.058871
   distancia enlace final      1.058871
   distancia enlace final      1.058871
   distancia enlace final      1.058871
   distancia enlace final      1.058871
   distancia enlace final      1.058871
