  22
 posiciones de los atomos
He       0.98863743    -1.99783786     0.68807190
He       1.16977754    -2.30677995    -1.91858298
He       0.95171926     1.46060585     3.54727528
He       0.01135230     0.02524552    -1.56462331
He       2.56731906    -0.17245300     1.91997907
He      -1.37930386    -2.13846374     1.96650310
He       1.19881849     1.88123395     0.69568626
He      -2.21116631     0.11181330     0.67806389
He      -1.25374292    -1.84518223    -0.71035230
He       1.42156119     2.13967960    -1.94129945
He       0.79295094    -1.53792812     3.55061215
He       0.01211414     0.00673898     1.59756202
He      -1.71151036     0.06162148     3.57523221
He       1.71115677    -0.11068399    -3.57835326
He      -0.77618226     1.57187961    -3.57361301
He      -0.98114434    -1.49802236    -3.57998658
He       2.19120064    -0.10043215    -0.68556760
He      -1.13737580     2.30732553     1.94400543
He      -1.02320512     1.98452281    -0.68517480
He      -2.51667736     0.15802267    -1.91121003
H       -0.07337380    -0.00918647    -0.55721473
H       -0.03107495     0.00558868     0.50070790


   distancia enlace final      1.058871
