  22
 posiciones de los atomos
He      -1.28262647     0.03113749     4.50375007
He       0.18936793    -2.29702808     0.38868058
He      -0.63389546     1.96969092    -4.77592166
He      -2.08982852    -1.95957227    -0.83933885
He       2.50759715    -0.85648110     1.12574487
He       0.38043579    -2.76961513     3.40831031
He      -2.51968704    -2.87378271     2.01849313
He       2.86505575     0.77328762    -3.08621625
He       2.13326868    -3.16232097    -1.26152336
He       0.15462620    -1.52642407    -2.79186501
He      -1.66804348     1.06701614    -1.83769216
He      -1.46065851     2.98559186     1.12027220
He       4.97011154     0.10414946    -1.05924253
He       2.64104450     3.05806654     0.41401060
He       0.52592347     2.68968254    -1.19735303
He       1.13451144     0.12185996    -1.06516727
He       0.90541151     1.07023477     1.86181020
He      -0.87828558    -0.16337620     1.29560475
He      -3.67060268     0.79980066     3.22212440
He      -4.31642740     1.00542526    -1.49913954
H       -0.14140662    -0.36375691     0.41515565
H        0.58900177     0.09630393    -0.19807791
He      -1.67388577     1.69563520     3.09896714
He       0.86624873    -2.04045176     0.05035742
He       0.12598337     0.25445759    -2.92822588
He      -2.58805172    -1.75582956    -0.79844671
He       1.94122276    -1.12507617     1.83577603
He       0.05472033    -3.16697243     1.91353555
He      -2.80502933    -3.09715931     2.51321454
He       4.49802029     2.88455276    -1.73949515
He       0.41587463    -2.10150108    -2.35000626
He      -0.68720936    -5.13307325    -3.08469272
He      -3.49018691     1.90151424    -2.55514447
He       0.15975151     4.31166503     1.96073397
He       3.67410587    -0.47262150    -0.47715225
He       3.75199071     1.80778879     0.74502707
He       0.14190174     2.77134905    -2.00228343
He       1.36926601     0.49641395    -0.84100092
He       0.69416919     1.27327529     1.30671964
He      -0.55552669    -0.55193703     1.13719905
He      -4.11397676     0.93037312     2.35850272
He      -1.80525130     1.09850783    -0.06635062
H       -0.44470546     0.04840155     0.03132925
H        0.54741973     0.02741177    -0.33806868
He      -1.30690890    -0.15665209     3.65692343
He       1.31375006    -2.36110631    -0.00882632
He       0.72445581     1.72373184    -4.15114076
He      -2.65725191    -0.31516088    -2.08842250
He       1.97549066    -1.66499599     2.83291127
He      -0.35502437    -3.15624874     2.85401423
He      -1.26558381    -2.89354147    -0.55438636
He       2.58073834     2.61182246    -1.56974459
He       0.02841072    -0.67230491    -1.42770676
He      -1.40570360    -2.89892220    -3.66850721
He      -4.00750042     2.75818009     1.32771830
He       1.15043276     3.48918938     0.76671127
He       2.80104033    -1.33423373    -2.05519169
He       3.38662160    -0.20667030     0.85694654
He      -0.91826841     3.74392352    -1.82924430
He       1.30273833     0.97285784    -0.02649177
He       0.50531437     0.86958342     2.41449937
He      -0.02863123    -1.28002761     1.44351539
He      -2.78697825    -0.68226000     1.10207328
He      -1.17686829     1.60692919    -0.02062419
H        0.15591380    -0.42816611     0.78848365
H        0.39901214    -0.18381976    -0.21271855
He      -2.55448236    -0.40082858     4.20752881
He       1.26534079    -2.51416474     1.44534242
He      -0.80611684     1.62743705    -4.98201320
He      -2.97152754    -0.67135377    -1.52413530
He       3.03153752    -0.55204255     2.43396423
He      -1.51320787    -4.04974351     2.13922347
He      -1.55652418    -2.44058855    -0.94617053
He       3.35809602     4.18457014    -0.66234919
He       1.05662307    -1.10271900    -1.03675885
He      -0.15987041    -1.85606659    -3.99058365
He      -1.80782634     2.93311320     1.57270550
He       1.58880257     2.76258338     1.49209269
He       2.82553366    -2.60561202    -0.77403307
He       3.84815018     0.67622651    -0.85153210
He      -0.07103004     2.89409655    -2.21656402
He       0.48134967     1.05671575    -0.48280338
He      -0.42025660     0.69433846     2.04362639
He      -0.83750722    -1.33943183     1.26403858
He      -3.03557562    -0.19238103     1.46521997
He      -1.62023426     0.98489828    -0.73559942
H       -0.43107204    -0.58925621     0.51503948
H        0.02885926     0.23560354     0.03621029
He       0.46533284    -0.19011544     4.79037736
He       1.94025869    -3.48825425     0.42087171
He      -1.68823010    -0.12749388    -2.80866839
He      -4.60093722    -1.44258069     0.00324384
He       2.78181254    -1.19165706     0.79994639
He      -2.09760006    -3.00090686     0.84184840
He      -1.24100023    -1.60323489    -0.78153964
He       1.96132326     4.02738502    -0.03957091
He       1.16367153     0.19011306    -1.66655679
He      -0.99585118    -2.88169401    -3.30145804
He      -2.85504270     3.15376868    -0.47549766
He       2.37762731     2.09995690     3.44232186
He       1.70483639    -2.10167651    -2.18353062
He       3.27477510     1.13178544     0.06039474
He       0.55080820     3.12151329    -4.00324519
He       0.33065257     1.93813600    -0.28009251
He       0.29279380     0.84313470     1.96176219
He       0.45293951    -1.39887658     1.14899814
He      -2.15778821     0.06328331     2.15257776
He      -1.71272323     0.89885367    -0.11933828
H        0.28638353    -0.45845970     0.39860747
H       -0.07850934     0.29388017    -0.25104297
He      -1.64496657     0.60482521     3.87083687
He       2.44240779    -2.89777648    -1.66482367
He      -1.51536981     0.33326247    -3.15235412
He      -4.28369619    -0.61417746    -2.37911352
He       1.98818336    -1.50499160     2.86221614
He      -1.66286404    -3.39738545     3.12919087
He       0.81583678    -2.89269924     0.54667174
He       2.57146885     2.71109222     1.18755214
He       1.11756214    -0.20561263    -1.68544452
He       0.56329329    -1.64363643    -4.05944236
He      -2.98628408     1.69595277    -0.79044986
He       1.08855421     1.40620481     4.03282223
He       3.15319723     1.40148372    -1.92818345
He       3.15381661    -0.45886120     0.06199558
He       2.02381970     3.88877879    -1.88607006
He      -0.30417142     1.90361549    -1.37542086
He      -0.96045417     1.90546981     1.37426790
He      -0.33219872    -0.16348185     1.38077037
He      -3.65537644    -0.63583332     1.10845277
He      -1.57711017    -1.38231236    -0.54266978
H       -0.15071157    -0.31265523     0.28081539
H        0.16799424     0.09852159    -0.64144706
He      -1.64138832    -0.19121289     1.19943572
He       3.25028743    -3.14821784    -2.76896809
He      -3.11724515    -0.84139648    -3.19310955
He      -2.68913797    -1.51555410    -0.90233135
He       2.74441808    -1.09202458     0.69365312
He       0.85898994    -0.31982008     4.16433923
He       0.35822513    -4.43353132     0.32044105
He       0.81270022     1.07892444     1.09754298
He       0.00672518    -0.67376028    -2.93995587
He       2.38387816    -0.85943152    -2.54273067
He      -2.21583629     1.12269102    -1.46728042
He      -1.35360608     2.81752984     3.22435667
He       1.02121167     3.53411248    -2.26753114
He       2.51047103     1.22537486    -0.50342712
He       2.19261777     3.32487989     1.70074728
He      -0.16830708     2.29453917    -0.89142152
He      -2.71229128     3.24658812     0.22724538
He       0.07895644    -2.06872122     1.93996758
He      -2.35843654    -1.85545767     3.59559263
He      -0.06795867    -1.60855496    -0.69731586
H        0.34343300     0.28107083     0.39126953
H        0.07646167    -0.42784590    -0.34857583
He      -0.04134666    -1.03239416     1.69406846
He       1.29042111    -3.77797087    -2.14977844
He      -5.11609045    -0.45744942    -0.92791613
He      -2.24669890    -2.14252587    -1.98821398
He       4.16813461    -0.51608329     0.91020104
He       2.36460414    -0.25916906     3.18507178
He      -0.06225819    -3.85460842     2.55509869
He       0.79072069     2.76090094     1.96838487
He      -0.16858365    -0.64609641    -3.41263368
He       1.60165921    -0.61415494    -1.99353634
He      -1.97966507     0.20902947    -0.77268651
He      -0.53456481     5.02508317     2.46767421
He       0.93307610     1.91548584    -3.27569459
He       0.72397390     1.43057827    -0.73213841
He       3.46944412     2.86465328    -2.25307538
He      -1.53953012     3.15740919    -1.23310334
He      -2.26201731     1.61885699     2.31834688
He       2.28186368    -1.49959126     0.74806023
He      -2.72523034    -1.54405049     3.31207654
He      -0.74853821    -2.38735877    -0.34633013
H       -0.72105231    -0.24323870    -0.47824792
H       -0.07076545    -0.75180317     0.18484858
He      -0.42405353    -1.21194615     1.72000240
He       1.15404551    -3.83969296    -2.17764933
He      -3.92145745     0.02869188    -1.06389383
He      -1.93914658    -1.41275084    -2.08694281
He       4.80451604     0.85140525     1.29577714
He       1.53348431     0.34606375     3.66497262
He       0.00713392    -4.22129301     1.77237444
He       1.16033143     2.03261235     2.16214037
He      -0.86636345     0.48584126    -3.51427873
He       1.35554619    -1.38045309    -2.67235095
He      -1.21862138     0.78343853    -0.80864728
He      -0.38686930     3.77462254     2.75227633
He       0.69049385     2.11671895    -4.15313455
He       1.01532484     0.88630197    -0.69806422
He       2.11301339     2.99795165    -0.09906711
He      -2.11702591     2.80912134    -1.52303540
He      -2.13369813     0.72401093     1.47883752
He       2.06791820    -2.26885703     1.74417691
He      -2.61775456    -1.76264784     2.87695132
He      -0.15751352    -1.73687436    -0.76732530
H       -0.39354361     0.20852277    -0.26630111
H       -0.08027438    -0.21751870     0.65106406
He       0.36811014    -1.10109246     1.32589838
He       2.28236727    -1.06381696    -1.83111998
He      -4.07732310     0.06948697     0.43663577
He      -2.43799554    -4.90819834    -2.23313234
He       2.15898618     0.69319170     1.07511856
He       2.13120955    -0.84594425     3.89415741
He      -1.71028617    -2.22138192     2.02414190
He       0.72187595     3.01091114     3.32191969
He      -1.69386752    -1.63493857    -4.00497411
He       3.59481158     1.75898032    -1.55236381
He      -1.95784178    -0.38406210    -0.77133575
He       0.56654073     1.12566499    -1.06891942
He       0.24725819     4.10640792    -2.21423325
He       1.00324641    -0.56232681    -3.24756732
He       2.38960187     3.15579827     1.02782689
He      -1.53187556     2.18351258    -2.01873284
He      -0.87980565     1.60754375     0.92495130
He       1.45879764    -3.94957809     2.32705304
He      -2.78146052     1.45180874     3.33372076
He       0.02191601    -2.49936004    -0.81693226
H        0.14448565     0.42332589    -0.18495089
H        0.35487107    -0.39396373     0.45456725
 
 
   distancia enlace final      1.058871
   distancia enlace final      1.058871
   distancia enlace final      1.058871
   distancia enlace final      1.058871
   distancia enlace final      1.058871
   distancia enlace final      1.058871
   distancia enlace final      1.058871
   distancia enlace final      1.058871
   distancia enlace final      1.058871
   distancia enlace final      1.058871
