  26
 posiciones de los atomos
He      -2.42375082     0.30894337    -0.06285095
He      -0.13845414    -2.11126317     0.09283018
He       0.68621534     0.45805651    -2.78487048
He       0.35603616     0.36143627     1.89355351
He      -0.24333984     2.64904311     0.22142639
He       2.97162003     0.61316601     0.07203105
He      -2.29571982    -3.17924982    -0.65106619
He      -1.80718792     0.36277971    -3.31464505
He      -2.55936616    -0.03881332     2.93345528
He      -2.53842713     3.53299339    -0.18953090
He       0.43370344    -2.34849647    -2.25333962
He      -0.24006592    -2.64013871     3.03908510
He      -0.15266904     2.92128937    -3.09632120
He      -0.24704608     3.24064347     3.73602338
He       3.63189729    -2.64214666     0.73115574
He       3.44463115     0.16240632    -2.72584386
He       3.11982383    -0.04519240     2.82069282
He       2.70671140     3.58532960    -0.12787119
He      -2.34584608    -2.76647741    -3.22519077
He      -2.59150620    -2.59809191     2.22702589
He      20.02691204    25.76948075    -2.83468528
He     -25.73594262   -19.70947153     2.36764480
He       3.38068261    -3.00961802    -2.24676986
He       2.38544990    -2.66246672     3.57518336
H        0.82932478    -0.26674523    -0.24273136
H       -0.07587507    -0.20398418     0.30305438
He      -2.59996320     0.05385748    -0.10249813
He       0.57204198    -1.70771668    -0.10837764
He       0.38812181     0.04847230    -2.89310712
He       0.20464838     0.23244576     2.19305165
He       0.26928086     2.98477528     0.07911628
He       2.85773844     0.40962884    -0.00434627
He      -2.13554951    -2.53444881    -0.18801946
He      -1.95678880     0.30035420    -2.65650443
He      -2.67559382     0.38956769     2.95342826
He      -2.69982590     2.98251335     0.57290119
He      -0.34730825    -2.88119768    -2.80668941
He      -0.24114402    -2.22751301     2.96806868
He       0.75677621     3.04798012    -3.33271456
He       0.60352962     3.07501596     2.70369357
He       2.81257629    -3.08155068     0.53275060
He       3.35196618     0.39738579    -2.76420243
He       3.32828515     0.51762177     2.83104408
He       3.18229877     3.23750464     0.35848692
He      -3.00124749    -2.72329119    -3.32936556
He      -2.64612430    -2.88097606     2.43144440
He      20.34979072    25.05766212    -2.79385269
He     -25.70543122   -19.38032887     2.94297375
He       2.44058621    -2.22889222    -2.53320695
He       2.84215772    -2.70008033     3.23021696
H        0.35134740    -0.83233482    -0.02956886
H       -0.22739362     0.02081777    -0.27122417
He      -2.13058235    -0.28107294    -0.34205939
He       0.24168367    -2.59918946    -0.21466949
He       0.12908229     0.23034666    -2.75477198
He      -0.23672344     0.34197535     2.01364426
He       0.16563568     2.85979059     0.28395129
He       2.50474517     0.26098501     0.22611212
He      -2.95341165    -2.54903398     0.81856370
He      -2.91761481     0.54849409    -2.76114797
He      -2.67897494     0.86524466     2.67021057
He      -2.85242426     3.42848497     0.10878932
He       0.53254081    -2.43870465    -3.48113465
He       0.33956020    -2.54544581     2.63728100
He      -0.07567521     3.16702061    -3.20417225
He       0.94353261     2.83919224     3.39789923
He       4.00004278    -2.65259509     0.50304314
He       3.54192722     0.23981063    -2.59179986
He       2.80758921     0.36178914     2.42296998
He       3.07532712     3.16677887     0.18021437
He      -2.99738018    -2.42173256    -2.83128679
He      -2.90236040    -3.39694691     2.98926923
He      20.21475358    26.05185867    -3.22867190
He     -25.64290551   -19.59630262     3.19528214
He       3.70384261    -2.66624303    -3.16384175
He       3.61547150    -3.19977138     2.99517028
H        0.01610646    -0.09477243    -0.22743930
H        0.13660469     0.61336210     0.55052822
He      -2.42601772    -0.21496525     0.23942779
He      -0.09193881    -1.95317845    -0.05350897
He       0.35936564     0.38946164    -2.47784088
He      -0.01792754     0.41990038     2.15693897
He       0.15939710     2.29706324     0.00841898
He       2.80900757     0.81692777     0.27512289
He      -2.77283507    -2.80153971     0.17592274
He      -2.42274575     0.64586499    -3.00419354
He      -2.42366115     0.21669257     2.93063088
He      -2.39967759     3.49500328    -0.25864081
He       0.38033414    -2.22706473    -3.02823273
He       0.28307132    -2.95951103     3.41791738
He      -0.28748658     2.82588184    -2.80750495
He      -0.06529088     3.07173550     3.02105292
He       3.72569168    -2.22223138     0.16043725
He       2.99604745     0.44800534    -2.63833438
He       3.10508403     0.00446584     3.05912799
He       3.57509298     3.11906606    -0.28641087
He      -2.75958608    -2.77315195    -2.97359868
He      -2.62272002    -2.75328572     2.84120152
He      19.82551246    25.19899848    -2.76688290
He     -25.28568628   -19.63695496     2.30653825
He       3.22224877    -2.39655804    -3.16827712
He       3.28629437    -3.00081508     2.61645210
H        0.05839125    -0.44526898    -0.00600660
H        0.36587782     0.56750181     0.02489838
He      -2.90640978     0.16798918    -0.08151748
He       0.25534563    -1.69471438    -0.31656764
He       0.28366388     0.31152719    -3.53682149
He      -0.07625443     0.35520057     2.81148348
He       0.40525765     3.26497713    -0.04348047
He       2.97029147    -0.17189823    -0.31986534
He      -1.70565651    -2.81304675    -0.58159522
He      -2.37534469     0.33070626    -2.76538925
He      -2.57497133     0.80775138     2.54764541
He      -2.82291573     3.40830082     0.75050185
He      -0.37827411    -2.52031218    -2.67251091
He       0.15513111    -2.80080554     2.52382975
He      -0.11291693     2.93256979    -2.36745919
He       0.63708830     3.03343786     3.76309203
He       3.45092881    -2.86559986     0.61682694
He       3.33565074     0.17858617    -2.71729105
He       2.69268200     0.58915242     2.63871417
He       3.62868183     2.74717207    -0.48887346
He      -2.86386507    -2.66637413    -3.34561939
He      -2.58465181    -2.73235929     2.93372274
He      19.63570360    25.52472726    -3.02352066
He     -25.09230282   -19.66106846     3.72852554
He       2.72959189    -2.81662718    -2.59486266
He       3.23457957    -2.67454738     2.96491511
H        0.16297348    -0.73588787    -0.44690759
H        0.64750710     0.16821867    -0.18417898
He      -1.93480478     0.58234703    -0.04209862
He       0.22590640    -2.33886350    -0.12169749
He       0.55957166     0.16013578    -3.01896196
He       0.00845621     0.52501598     2.00426260
He       0.01961503     2.95345106     0.14206983
He       3.20311939     0.34709312    -0.25323151
He      -2.18671509    -3.09125631    -0.35262798
He      -2.39897620     0.51281499    -2.82073453
He      -2.75832800     0.01409513     3.38342746
He      -2.86190307     3.41005084     0.23633545
He      -0.03150159    -2.21466914    -2.29013501
He       0.39668219    -2.53954005     2.47448153
He       0.25312380     3.20967199    -3.13591359
He       0.03385078     2.67028908     3.80584646
He       3.56012284    -2.61193293     0.14470722
He       3.17225522     0.69606851    -2.79375040
He       3.40537485     0.60017043     2.93790429
He       2.81031324     3.04767556    -0.15873461
He      -2.35430523    -2.71613095    -3.20846765
He      -2.58270772    -3.36651614     2.66560252
He      19.94472003    25.60640500    -2.70048563
He     -25.97933263   -19.31246579     2.79935983
He       2.53345005    -2.60584923    -2.35728689
He       2.57676229    -3.12367009     2.96184631
H        0.17890114    -1.05424190    -0.32383890
H        0.44623381    -0.03900811    -0.18584834
He      -2.38650420    -0.39193823    -0.27493496
He      -0.07089162    -2.18348256    -0.08636192
He      -0.22729595    -0.19375077    -3.26886497
He       0.26120969     0.31356090     2.76794369
He       0.15352557     3.19113724     0.41245578
He       2.09742734     0.53247307     0.71119830
He      -3.14668060    -3.20822219     0.05744624
He      -2.32720943     1.26229569    -2.70429513
He      -2.66762920     0.59856450     2.57960348
He      -2.18875446     2.91018394    -0.39966874
He       0.23596917    -2.61590595    -3.06691522
He      -0.15705830    -2.55001001     2.46364575
He       0.76606470     3.03497273    -2.37970115
He       1.07460380     2.97116065     3.32913246
He       3.93810780    -2.62737272     0.11191452
He       3.24377943     0.49273691    -3.17228664
He       2.92781661     0.19702274     3.18827838
He       2.87182044     3.14600457    -0.20293678
He      -2.94840173    -3.03431372    -2.85818593
He      -2.73375360    -2.33253072     2.68551032
He      19.98803640    25.75287429    -2.72899808
He     -24.72402447   -19.72423050     2.47678092
He       3.52592469    -3.05268341    -2.93162973
He       2.87487572    -2.36040009     3.12428418
H        0.50234090     0.16017846     0.56683320
H       -0.38563845    -0.06654261     0.03645784
He      -2.53765921     0.29217002    -0.04160953
He       0.02959745    -2.06393636     0.35711102
He       0.24069304     0.46340034    -3.13285377
He      -0.00333680    -0.15373676     2.13414874
He       0.14430430     3.49231335     0.51556285
He       2.41324208     0.43747662     0.08093613
He      -2.64334271    -2.88627149    -0.22189222
He      -2.29671360     0.38293690    -2.96466998
He      -2.35193877     0.53013808     2.73617050
He      -2.38323335     3.71298851    -0.42133683
He       0.51792375    -2.85274357    -2.16805693
He      -0.23540793    -2.89869791     3.31947857
He      -0.14567531     3.02966887    -2.97194685
He       0.66080164     3.15290908     3.37920978
He       3.37513268    -2.51981689     0.21604956
He       3.03176449     0.09095549    -2.33683430
He       3.44427834     0.23348955     2.43184744
He       2.97258956     3.03550744     0.21630380
He      -2.51516541    -2.81723826    -3.02802983
He      -2.64466632    -2.99129325     2.78654171
He      20.15678366    25.47902200    -3.30625377
He     -25.52678439   -19.56032110     2.14674087
He       3.43659809    -2.88382870    -3.16830825
He       3.10713843    -2.25989269     3.11094401
H        0.27841108    -0.96111711     0.24636319
H       -0.11010412    -0.04837434    -0.12399388
He      -2.28596016     0.36558421    -0.36960582
He       0.07478281    -1.84881529    -0.53146193
He      -0.01704183     0.07474343    -2.59520395
He       0.44891632     0.70814514     2.25024979
He       0.48580407     2.12502208    -0.08502473
He       3.28717353     0.30941265    -0.38605155
He      -2.68484541    -3.26987764     0.12831521
He      -2.39303573     1.31485990    -2.95000057
He      -2.73607333     0.30523316     3.09587078
He      -3.13117702     2.82495571     0.22903271
He      -0.01803999    -2.51889342    -3.13040158
He      -0.25376933    -2.58888767     3.32050699
He       0.68794110     3.06608247    -2.15653111
He       0.63391657     3.09696474     3.56897275
He       3.37746589    -2.41909616    -0.04185351
He       3.07213316     0.80134412    -2.85420020
He       3.32715537    -0.10974947     2.42917383
He       3.26903352     2.92928592    -0.16226130
He      -3.04414734    -2.68368592    -2.69204520
He      -3.08446112    -2.68719258     2.75452480
He      20.36819014    25.67200348    -2.50612705
He     -25.48024506   -19.71608139     3.12342812
He       2.87801522    -2.42636911    -2.97870939
He       3.29455941    -3.36331850     2.83387792
H        0.49331719     0.67176423    -0.35441342
H        0.24183508    -0.35680821    -0.35260022
He      -2.23193519    -0.39169574    -0.26506939
He       0.60412350    -2.00133695    -0.19322793
He       0.19556286     0.18754443    -3.12206793
He       0.14925373     0.36970897     2.44652228
He       0.53110332     2.89572702     0.12710616
He       2.90733683     0.29622388    -0.15398030
He      -2.42766382    -2.82965955     0.29567409
He      -2.47469003     0.92107337    -2.19194467
He      -2.74734621     0.34515177     2.82209016
He      -2.98514750     3.35166019     0.17658784
He       0.40819105    -2.22858983    -3.40939424
He       0.20596673    -2.37201754     2.65332903
He       0.08202672     2.95331857    -2.25598905
He       0.67503053     3.07633647     3.07849053
He       3.61374064    -2.10135349     0.18543127
He       3.58713697     0.68821978    -2.60614046
He       2.54828617    -0.01140188     2.52032182
He       3.30413821     2.87337556    -0.38673147
He      -2.91940181    -3.24677824    -2.71355874
He      -2.69567731    -2.79902988     3.00122212
He      19.56279947    26.09654625    -3.07740687
He     -25.93083111   -19.77390920     2.99024504
He       2.66915420    -3.17627777    -2.78213171
He       3.17121658    -3.09128728     2.77069483
H        0.18745046    -0.40860051     0.50234243
H        0.08089617     0.33721331    -0.24171114
 
 
   distancia enlace final      1.058871
   distancia enlace final      1.058871
   distancia enlace final      1.058871
   distancia enlace final      1.058871
   distancia enlace final      1.058871
   distancia enlace final      1.058871
   distancia enlace final      1.058871
   distancia enlace final      1.058871
   distancia enlace final      1.058871
   distancia enlace final      1.058871
