  22
 posiciones de los atomos
He       1.47006733    -2.49821347     0.41994777
He       0.52245395    -2.91452231    -2.11969671
He       1.03914541     1.45478024     3.56158609
He       0.41832781    -0.03155266    -1.89488961
He       4.02225949     0.78216908     1.95241487
He      -2.41616473    -3.12134491     1.98992100
He       1.35216835     1.87200792     0.81204334
He      -2.07068595     0.01520077    -0.07100042
He      -1.23298080    -2.05578423    -0.22770246
He       1.63963890     4.15443295    -1.10206245
He       1.19810100    -2.08672057     3.78572887
He      -0.31797797    -0.14925127     1.40111238
He      -2.65520508    -0.88181391     3.29301703
He       1.86028325     1.45007039    -3.59552484
He      -1.20965751     1.12300537    -3.27434321
He      -0.39839544    -1.34977266    -4.28905072
He       2.72037575    -0.24850711    -0.34432613
He      -1.55654922     1.84347862     2.84194893
He      -0.31305889     3.15657660    -0.50024732
He      -3.97776844    -0.37071238    -2.57518304
H        0.10086490    -0.31021460    -0.56983509
H       -0.47568614    -0.25980395     0.31687538
He       0.46757017    -2.16394560     0.16676580
He       2.27607562    -2.92315934    -1.49306551
He       1.06479224     0.13680317     4.09904422
He       0.02283022     0.61422447    -1.44215321
He       3.68467385     1.10871384     2.67206395
He      -3.03647289    -2.49970857     1.13273816
He       1.49932691     1.75189729     0.44499210
He      -2.46436796    -0.11795080     0.65498631
He      -1.06309100    -1.98445498    -1.24756741
He       1.97152446     2.83770052    -2.55026477
He      -0.87346323    -3.75969152     2.54451293
He      -0.05097643    -0.29316239     1.60534855
He      -2.10032126    -0.44947501     3.30304233
He       2.59932942    -0.15950230    -3.27399456
He      -1.41401357     3.74596226    -3.69582208
He      -0.94468804    -0.68711150    -3.18928580
He       3.73422503    -0.19103384    -0.11745627
He      -0.42069138     1.89261332     2.33944872
He      -1.30978153     2.31297005    -0.60155029
He      -3.53650756     0.75670177    -1.48198205
H       -0.23427339     0.27778527    -0.25268018
H       -0.18660110     0.00661210     0.76976799
He       0.43443150    -2.73942746     0.69056155
He       1.77561758    -3.60027755    -1.30287771
He       1.43743354     1.13969769     3.97666753
He      -0.28690758    -0.16534168    -1.63565272
He       2.37817301    -0.22615009     1.15816427
He      -2.22810843    -2.92792042     2.42612919
He       1.50321141     2.07804071     0.16938045
He      -2.33767883     0.40000913     0.92556243
He      -2.20738225    -2.52494069    -0.26811939
He       1.28858071     3.10108955    -2.16283285
He       1.42276677    -2.40100586     3.61214696
He       0.11868229     0.34002447     1.38756674
He      -1.92355405    -0.31740131     3.75760696
He       2.27045697    -1.51173552    -3.51403705
He      -1.21802108     2.48660996    -3.68985922
He      -1.43940444    -1.39985128    -3.13440380
He       2.31291192     0.11585416    -1.04284479
He      -0.35484401     4.07660465     1.41757983
He      -0.85526624     2.72247116    -0.91163018
He      -2.39697907     1.40318304    -1.78479891
H        0.51704211    -0.24321749    -0.64871199
H        0.69776836     0.04649729     0.35359094
He       0.45653871    -2.07009819    -0.01362550
He       2.41767483    -2.67826394    -1.66278625
He       0.76562370     0.72958933     4.19353808
He       0.31514389     0.44278798    -1.45710827
He       3.56692103     1.14758207     2.60599391
He      -2.76511175    -2.41685786     1.01539680
He       1.59193326     1.61031130     0.35323358
He      -2.09898123     0.01257253     0.83244400
He      -1.45968002    -2.27164747    -1.29046204
He       2.10960253     2.74616558    -2.36155899
He      -0.71606786    -3.46945352     2.19170116
He       0.14248470    -0.66296100     1.71284747
He      -2.24131533    -0.51460191     3.54921665
He       2.68129245    -0.10058066    -3.37084681
He      -1.86226237     3.28884736    -3.48094962
He      -0.59386720    -0.66073743    -3.29381405
He       3.66043251    -0.09020502    -0.03765042
He      -0.79646506     1.84626197     2.22240925
He      -1.22778493     2.42642918    -0.58524817
He      -3.95736211     0.73979116    -1.21668623
H       -0.06597047     0.07021494    -0.30368825
H        0.11065112    -0.28837656     0.67683444
He       0.25775668    -1.88140974     0.24144921
He       2.70713730    -2.79985569    -1.38033155
He       0.85933166     0.13549373     4.29875131
He       0.15665032     0.69291027    -1.81799997
He       3.80923316     1.08207975     2.70286313
He      -2.83710264    -2.84835846     1.01445595
He       1.44497657     1.70975722     0.30982155
He      -2.33692743    -0.15884849     0.68541598
He      -1.32061636    -2.06273684    -1.38900093
He       2.42448327     2.64491479    -2.31541485
He      -0.64814429    -3.62852764     2.39495221
He      -0.10821478    -0.35178042     1.73305606
He      -2.47700517    -0.30018094     3.49202720
He       2.64964522    -0.16449251    -3.58403313
He      -1.37761745     3.19374524    -3.71710786
He      -0.93679535    -0.65415776    -3.32912891
He       3.50700004     0.24598772    -0.16436641
He      -0.59977012     2.14933353     2.05801512
He      -1.33886885     2.10669097    -0.29550174
He      -3.79992445     0.75836991    -0.92175074
H        0.18593936     0.48721406    -0.43623544
H       -0.32584538     0.03331494     0.37200942
He       0.46051315    -2.72793927     0.91215640
He       1.68424802    -3.76769227    -1.41168169
He       1.45955866     1.11123108     4.01132819
He      -0.27905060    -0.13724372    -1.72093696
He       2.44069574    -0.12469744     1.12832837
He      -2.26118979    -2.93266565     2.40189661
He       1.42183147     2.08857414     0.30681243
He      -2.00704985     0.34282752     0.76878617
He      -2.16699823    -2.57782933    -0.16105259
He       1.36257994     2.92497437    -2.22262815
He       1.29144228    -2.40374337     3.62098918
He       0.09143399     0.40418990     1.47952872
He      -1.88434003    -0.20580099     3.82348181
He       2.33291611    -1.50891051    -3.68461923
He      -1.35479793     2.24925271    -3.67992962
He      -1.48865446    -1.47658799    -3.02669552
He       2.28784691     0.28930424    -1.13892407
He      -0.34928062     4.11639237     1.44992596
He      -0.81316927     2.97274400    -1.14310699
He      -2.41953305     1.37092661    -1.71364038
H        0.28067939    -0.11286768    -0.51082684
H        0.47787182     0.08385008     0.51075285
He       0.32067839    -1.80864336     0.34685242
He       2.64137317    -2.81065636    -1.30840090
He       0.86644218     0.20929271     4.31765800
He       0.13294574     0.58406783    -1.79158972
He       3.85464371     1.05195950     2.58563573
He      -2.84638727    -2.73433095     0.93259800
He       1.40055772     1.70499038     0.61664867
He      -2.47708851    -0.13186266     0.66934422
He      -1.16700006    -2.07277201    -1.31797799
He       2.24374894     2.66854398    -2.42916906
He      -0.72828444    -3.63237368     2.36715095
He      -0.08783484    -0.40705880     1.73414479
He      -2.48675030    -0.41287681     3.50572157
He       2.67200022    -0.10175157    -3.64428144
He      -1.28583256     3.29133633    -3.81725069
He      -0.84969200    -0.52762027    -3.28506920
He       3.49319426     0.07958895    -0.24493969
He      -0.60082607     1.92460077     2.22949524
He      -1.40167718     2.15832253    -0.35031747
He      -3.64634953     0.77214790    -1.13467863
H        0.13500915     0.34843777    -0.43865870
H       -0.32509253     0.42638885     0.51183479
He       0.39202689    -1.94021502     0.20315716
He       2.64126006    -2.61055282    -1.36154251
He       0.85709518     0.17694547     4.32941591
He       0.17293961     0.64386802    -1.60760673
He       3.89791668     1.11609455     2.60071374
He      -2.84290424    -2.73480387     0.96484872
He       1.59080303     1.67734400     0.51767124
He      -2.62004459    -0.13502478     0.72892905
He      -1.24819772    -2.15744057    -1.18737784
He       2.15835631     2.64245521    -2.55479787
He      -0.70902111    -3.66647023     2.46317317
He      -0.11223471    -0.38800173     1.75810085
He      -2.29187050    -0.47674268     3.44205418
He       2.51047234    -0.18673635    -3.72697518
He      -1.43599664     3.19282800    -3.83966871
He      -0.89598355    -0.54009534    -3.17965817
He       3.49421543     0.26086420    -0.07895489
He      -0.48168049     2.10967630     2.05438594
He      -1.47678273     2.10199382    -0.30747176
He      -3.69892950     0.75554267    -1.25973353
H        0.27737044     0.32190540    -0.44096535
H        0.11406395     0.30746643     0.60513708
He       0.45993390    -1.87099760     0.29979302
He       2.64746549    -2.73437534    -1.39897003
He       0.83041793     0.27264711     4.32366756
He       0.16865832     0.68217132    -1.64923993
He       3.82570439     0.94962438     2.56126402
He      -2.80950060    -2.73445657     0.87751213
He       1.63967431     1.61125830     0.40593421
He      -2.63547891    -0.05793708     0.78023089
He      -1.24135286    -2.21879690    -1.21158689
He       2.18897265     2.61203060    -2.53239875
He      -0.73118890    -3.70493528     2.39289944
He      -0.10691532    -0.40725312     1.80540237
He      -2.28119553    -0.37116368     3.41087469
He       2.57921049    -0.27417812    -3.64200011
He      -1.49459438     3.22705830    -3.86612437
He      -0.93532377    -0.59997643    -3.13891408
He       3.43895850     0.31308366    -0.20732924
He      -0.38190875     2.09038125     2.24391633
He      -1.43228141     2.18028748    -0.19951863
He      -3.74867085     0.79343491    -1.31396540
H        0.10871140     0.51198797    -0.40756343
H       -0.03160304     0.44948915     0.64010710
He       0.44082614    -2.61704575     0.87595674
He       1.85530202    -3.78837428    -1.42803476
He       1.41700530     1.10780974     3.91345002
He      -0.30589338    -0.08869086    -1.56727699
He       2.68038087    -0.20155780     1.11217515
He      -2.28345684    -2.96966163     2.44538823
He       1.57782834     2.00687919     0.21040887
He      -2.32316567     0.33100935     0.89316112
He      -2.12882847    -2.63070580    -0.17599917
He       1.38537475     2.83937197    -2.48822799
He       1.26384384    -2.38226461     3.42272866
He      -0.00823773     0.41753802     1.45121691
He      -1.87363324     0.03610317     3.91852353
He       2.03562090    -1.76147274    -3.60814560
He      -1.26240804     2.66092501    -3.68080751
He      -1.66080569    -1.59364628    -3.07994447
He       2.50464888     0.10406576    -1.10894575
He      -0.48330006     4.09877275     1.51705563
He      -0.62583260     2.97487924    -0.98667734
He      -2.38967342     1.40544893    -1.53181636
H        0.15020803     0.01557562    -0.68275426
H        0.58215696     0.18544951     0.26896564
 
 
   distancia enlace final      1.058871
   distancia enlace final      1.058871
   distancia enlace final      1.058871
   distancia enlace final      1.058871
   distancia enlace final      1.058871
   distancia enlace final      1.058871
   distancia enlace final      1.058871
   distancia enlace final      1.058871
   distancia enlace final      1.058871
   distancia enlace final      1.058871
